
<<< setup


<<< generate

Version identifier: 12.10.0.0 | 2019-11-26 | 843d4de2ae
CPXPARAM_TimeLimit                               1200
Tried aggregator 3 times.
MIP Presolve eliminated 5152054 rows and 2919639 columns.
MIP Presolve modified 440116 coefficients.
Aggregator did 528 substitutions.
Reduced MIP has 90468 rows, 91383 columns, and 590436 nonzeros.
Reduced MIP has 91333 binaries, 0 generals, 0 SOSs, and 0 indicators.
Presolve time = 7.45 sec. (4631.08 ticks)
Found incumbent of value 11310.000000 after 11.64 sec. (5892.08 ticks)
Probing fixed 2571 vars, tightened 0 bounds.
Probing time = 38.06 sec. (7307.42 ticks)
Tried aggregator 2 times.
Detecting symmetries...
MIP Presolve eliminated 2552 rows and 2571 columns.
Aggregator did 2 substitutions.
Reduced MIP has 87914 rows, 88810 columns, and 572974 nonzeros.
Reduced MIP has 88760 binaries, 0 generals, 0 SOSs, and 0 indicators.
Presolve time = 0.78 sec. (410.19 ticks)
Probing fixed 23 vars, tightened 0 bounds.
Probing time = 2.41 sec. (488.42 ticks)
Clique table members: 313921.
MIP emphasis: balance optimality and feasibility.
MIP search method: dynamic search.
Parallel mode: deterministic, using up to 4 threads.
Root relaxation solution time = 2.75 sec. (2109.12 ticks)

        Nodes                                         Cuts/
   Node  Left     Objective  IInf  Best Integer    Best Bound    ItCnt     Gap

*     0+    0                        11310.0000   108621.0000           860.40%
      0     0    57913.0000   557    11310.0000    57913.0000     7407  412.05%
*     0+    0                        14050.0000    57913.0000           312.19%
      0     0    57913.0000   557    14050.0000      Cuts: 12     7718  312.19%
      0     0    57913.0000   557    14050.0000    Cuts: 5681    12935  312.19%
      0     0    57913.0000   557    14050.0000    Cuts: 1025    14982  312.19%
*     0+    0                        16060.0000    57913.0000           260.60%
*     0+    0                        20374.0000    57913.0000           184.25%
      0     0        cutoff          20374.0000    57913.0000    14982  184.25%
      0     0    57913.0000   557    20374.0000    Cuts: 6607    21313  184.25%
Heuristic still looking.
      0     2    57913.0000   189    20374.0000    57913.0000    21313  184.25%
Elapsed time = 251.06 sec. (119200.21 ticks, tree = 0.02 MB, solutions = 4)
      1     3    57913.0000   368    20374.0000    57913.0000    28047  184.25%
      2     4    57913.0000   366    20374.0000    57913.0000    40338  184.25%
      3     3    57913.0000   329    20374.0000    57913.0000    38853  184.25%
      4     5    57913.0000   382    20374.0000    57913.0000    45085  184.25%
      5     7    57913.0000   389    20374.0000    57913.0000    64595  184.25%
      6     8    57913.0000   493    20374.0000    57913.0000    71519  184.25%
      8     4    57913.0000   343    20374.0000    57913.0000    37898  184.25%
      9     8    57913.0000   486    20374.0000    57913.0000    75548  184.25%
     10     5    57913.0000   373    20374.0000    57913.0000    46033  184.25%
     13    10    57913.0000   426    20374.0000    57913.0000    77259  184.25%
Elapsed time = 323.61 sec. (152170.57 ticks, tree = 0.19 MB, solutions = 4)
     17    11    57913.0000   464    20374.0000    57913.0000   102743  184.25%
     19    12    57913.0000   383    20374.0000    57913.0000    77889  184.25%
     22    14    57913.0000   382    20374.0000    57913.0000   103901  184.25%
     25    22    57913.0000   346    20374.0000    57913.0000   129164  184.25%
     26    23    57913.0000   367    20374.0000    57913.0000   133613  184.25%
     28    25    57913.0000   373    20374.0000    57913.0000   136518  184.25%
     31    23    57913.0000   436    20374.0000    57913.0000   173317  184.25%
     33    24    57913.0000   435    20374.0000    57913.0000   174695  184.25%
     37    25    57913.0000   420    20374.0000    57913.0000   176811  184.25%
     42    31    57913.0000   327    20374.0000    57913.0000   190310  184.25%
Elapsed time = 379.02 sec. (169463.59 ticks, tree = 1.49 MB, solutions = 4)
     47    34    57913.0000   356    20374.0000    57913.0000   193309  184.25%
     51    39    57913.0000   334    20374.0000    57913.0000   220331  184.25%
     54    41    57913.0000   317    20374.0000    57913.0000   221951  184.25%
     59    43    57913.0000   375    20374.0000    57913.0000   225774  184.25%
     61    49    57913.0000   338    20374.0000    57913.0000   268393  184.25%
     65    42    57913.0000   278    20374.0000    57913.0000   230422  184.25%
     68    60    57913.0000   292    20374.0000    57913.0000   278591  184.25%
     73    61    57913.0000   275    20374.0000    57913.0000   282030  184.25%
     78    62    57913.0000   295    20374.0000    57913.0000   283272  184.25%
     82    65    57913.0000   368    20374.0000    57913.0000   286615  184.25%
Elapsed time = 415.05 sec. (182814.40 ticks, tree = 2.41 MB, solutions = 4)
     88    78    57913.0000   403    20374.0000    57913.0000   305613  184.25%
     94    81    57913.0000   411    20374.0000    57913.0000   306788  184.25%
     97    81    57913.0000   311    20374.0000    57913.0000   316914  184.25%
     99    83    57913.0000   354    20374.0000    57913.0000   308345  184.25%
    107    85    57913.0000   403    20374.0000    57913.0000   310010  184.25%
    110    93    infeasible          20374.0000    57913.0000   333249  184.25%
    111    88    57913.0000   348    20374.0000    57913.0000   337363  184.25%
    112    92    infeasible          20374.0000    57913.0000   333642  184.25%
    113   101    infeasible          20374.0000    57913.0000   340408  184.25%
    115    82    57913.0000   510    20374.0000    57913.0000   330998  184.25%
Elapsed time = 587.86 sec. (217396.35 ticks, tree = 3.94 MB, solutions = 4)
    117   104    57913.0000   357    20374.0000    57913.0000   353960  184.25%
    118   102    57913.0000   497    20374.0000    57913.0000   345876  184.25%
    119   109    57913.0000   401    20374.0000    57913.0000   397766  184.25%
    120   110    57913.0000   367    20374.0000    57913.0000   399496  184.25%
    122   110    57913.0000   371    20374.0000    57913.0000   400845  184.25%
    124   110    infeasible          20374.0000    57913.0000   402516  184.25%
    126   106    57913.0000   471    20374.0000    57913.0000   376881  184.25%
    128   111    57913.0000   318    20374.0000    57913.0000   410902  184.25%
    130   110    infeasible          20374.0000    57913.0000   406965  184.25%
    133   114    57913.0000   294    20374.0000    57913.0000   413288  184.25%
Elapsed time = 702.74 sec. (239057.32 ticks, tree = 2.87 MB, solutions = 4)
    134   115    57913.0000   262    20374.0000    57913.0000   414440  184.25%
    137   112    57913.0000   445    20374.0000    57913.0000   425986  184.25%
    140   118    57913.0000   361    20374.0000    57913.0000   416642  184.25%
    143   119    57913.0000   270    20374.0000    57913.0000   417241  184.25%
    145   120    57913.0000   315    20374.0000    57913.0000   419764  184.25%
    149   111    infeasible          20374.0000    57913.0000   430012  184.25%
    151   113    57913.0000   483    20374.0000    57913.0000   436667  184.25%
    153   122    57913.0000   275    20374.0000    57913.0000   421587  184.25%
    155   115    57913.0000   333    20374.0000    57913.0000   452098  184.25%
    157   114    57913.0000   478    20374.0000    57913.0000   439290  184.25%
Elapsed time = 734.09 sec. (251629.60 ticks, tree = 3.46 MB, solutions = 4)
    160   127    57913.0000   411    20374.0000    57913.0000   456871  184.25%
    163   128    57913.0000   392    20374.0000    57913.0000   467963  184.25%
    167   127    infeasible          20374.0000    57913.0000   469303  184.25%
    170   131    57913.0000   245    20374.0000    57913.0000   459914  184.25%
    175   131    57913.0000   249    20374.0000    57913.0000   461815  184.25%
    179   131    57913.0000   404    20374.0000    57913.0000   478868  184.25%
    184   132    57913.0000   437    20374.0000    57913.0000   480609  184.25%
    193   133    57913.0000   445    20374.0000    57913.0000   481466  184.25%
    195   134    57913.0000   385    20374.0000    57913.0000   482386  184.25%
    203   138    57913.0000   346    20374.0000    57913.0000   500347  184.25%
Elapsed time = 770.30 sec. (264080.77 ticks, tree = 5.94 MB, solutions = 4)
    205   139    57913.0000   375    20374.0000    57913.0000   503246  184.25%
    209   137    57913.0000   366    20374.0000    57913.0000   504376  184.25%
    215   144    57913.0000   346    20374.0000    57913.0000   510525  184.25%
    217   143    57913.0000   329    20374.0000    57913.0000   512535  184.25%
    221   138    57913.0000   367    20374.0000    57913.0000   508838  184.25%
    227   141    infeasible          20374.0000    57913.0000   513656  184.25%
    229   150    infeasible          20374.0000    57913.0000   531456  184.25%
    234   150    infeasible          20374.0000    57913.0000   532467  184.25%
    239   141    57913.0000   376    20374.0000    57913.0000   511393  184.25%
    242   150    infeasible          20374.0000    57913.0000   533334  184.25%
Elapsed time = 800.02 sec. (276150.03 ticks, tree = 6.49 MB, solutions = 4)
    250   151    57913.0000   299    20374.0000    57913.0000   534414  184.25%
    260   143    57913.0000   208    20374.0000    57913.0000   514641  184.25%
    266   170    57913.0000   288    20374.0000    57913.0000   568266  184.25%
    270   173    57913.0000   303    20374.0000    57913.0000   569407  184.25%
    279   169    57913.0000   304    20374.0000    57913.0000   577956  184.25%
    289   173    57913.0000   212    20374.0000    57913.0000   583660  184.25%
    301   181    57913.0000   263    20374.0000    57913.0000   574865  184.25%
    307   180    infeasible          20374.0000    57913.0000   576213  184.25%
    316   175    57913.0000   183    20374.0000    57913.0000   586064  184.25%
    324   175    57913.0000   229    20374.0000    57913.0000   587504  184.25%
Elapsed time = 832.77 sec. (288856.34 ticks, tree = 10.81 MB, solutions = 4)
    332   175    57913.0000   259    20374.0000    57913.0000   588699  184.25%
    339   170    infeasible          20374.0000    57913.0000   590923  184.25%
    342   189    57913.0000   269    20374.0000    57913.0000   607016  184.25%
    343   190    57913.0000   238    20374.0000    57913.0000   607901  184.25%
    350   181    57913.0000   180    20374.0000    57913.0000   590883  184.25%
    358   193    57913.0000   247    20374.0000    57913.0000   609997  184.25%
    360   192    infeasible          20374.0000    57913.0000   610843  184.25%
    363   193    57913.0000   255    20374.0000    57913.0000   611542  184.25%
    365   193    57913.0000   251    20374.0000    57913.0000   612473  184.25%
    375   192    infeasible          20374.0000    57913.0000   615778  184.25%
Elapsed time = 874.52 sec. (304166.35 ticks, tree = 12.30 MB, solutions = 4)
    381   201    57913.0000   273    20374.0000    57913.0000   624589  184.25%
    385   200    infeasible          20374.0000    57913.0000   639337  184.25%
    391   199    infeasible          20374.0000    57913.0000   631320  184.25%
    399   198    57913.0000   289    20374.0000    57913.0000   630202  184.25%
    404   200    57913.0000   374    20374.0000    57913.0000   652884  184.25%
    406   201    57913.0000   339    20374.0000    57913.0000   652915  184.25%
    409   201    57913.0000   251    20374.0000    57913.0000   662251  184.25%
    428   204    57913.0000   244    20374.0000    57913.0000   685951  184.25%
    455   200    57913.0000   160    20374.0000    57913.0000   693622  184.25%
    475   202    57913.0000   164    20374.0000    57913.0000   692089  184.25%
Elapsed time = 1041.75 sec. (348542.81 ticks, tree = 13.00 MB, solutions = 4)
    508   203    57913.0000   126    20374.0000    57913.0000   695568  184.25%
    523   203    57913.0000   162    20374.0000    57913.0000   731977  184.25%
    549   203    57913.0000   184    20374.0000    57913.0000   733879  184.25%
    567   212    57913.0000   412    20374.0000    57913.0000   746151  184.25%
    594   209    57913.0000   158    20374.0000    57913.0000   731736  184.25%
    636   232    57913.0000   186    20374.0000    57913.0000   791322  184.25%
Starting limited solution polishing.
    682   221    57913.0000   176    20374.0000    57913.0000   771830  184.25%
    740   232    57913.0000   248    20374.0000    57913.0000   797870  184.25%
    763   222    57913.0000   214    20374.0000    57913.0000   776011  184.25%
    829   225    57913.0000   291    20374.0000    57913.0000   818083  184.25%
Elapsed time = 1156.97 sec. (388894.08 ticks, tree = 22.73 MB, solutions = 4)
    838   234    infeasible          20374.0000    57913.0000   830954  184.25%
    843   241    infeasible          20374.0000    57913.0000   842765  184.25%

Implied bound cuts applied:  599
Flow cuts applied:  15
Mixed integer rounding cuts applied:  639

Root node processing (before b&c):
  Real time             =  247.17 sec. (117910.34 ticks)
Parallel b&c, 4 threads:
  Real time             =  953.44 sec. (283001.85 ticks)
  Sync time (average)   =  199.38 sec.
  Wait time (average)   =    0.00 sec.
                          ------------
Total (root+branch&cut) = 1200.61 sec. (400912.19 ticks)

<<< solve


OBJECTIVE: 20374

<<< post process


<<< done

